letting np_cars_plus be 157
letting np_classes be 66
letting np_options be 13
letting quantity_range_min be 3
letting quantity_range_delta be 72
letting maxcars_range_min be 6
letting maxcars_range_delta be 0
letting blksize_delta_range_min be 9
letting blksize_delta_range_delta be 8
letting usage_card_min be 766
letting usage_card_delta be 55